c ---- [ banner ] ------------------------------------------------------------
c
c Kissat SAT Solver
c 
c Copyright (c) 2021-2024 Armin Biere University of Freiburg
c Copyright (c) 2019-2021 Armin Biere Johannes Kepler University Linz
c 
c Version 4.0.1 43f02cf3e992cb44653b35e5cb26f93281552ae0
c gcc (Ubuntu 13.2.0-23ubuntu4) 13.2.0 -W -Wall -O3 -DNDEBUG
c Thu Sep 12 12:27:46 CEST 2024 Linux abryzen9 6.8.0-41-generic x86_64
c
c ---- [ parsing ] -----------------------------------------------------------
c
c opened and reading DIMACS file:
c
c   /data/artifact/AMulet2.0_artifact/exp4/cnf_compress2rs_64/64_64_U_SP_WT_CK_GenMul_compress2rs.cnf
c
c parsed 'p cnf 36522 142101' header
c closing input after reading 2767391 bytes (3 MB)
c finished parsing after 0.02 seconds
c
c ---- [ options ] -----------------------------------------------------------
c
c --stable=0                       (different from default '1')
c
c ---- [ solving ] -----------------------------------------------------------
c
c  seconds switched rate     size/glue tier1  binary           remaining
c         MB reductions conflicts size  tier2     irredundant
c          level restarts redundant glue  trail           variables
c
c *  0.02 11 0 0 0  0 0   0   0 0.0 0 0 0 0 0% 29432 112667 36519 100%
c (  0.04 13 0 0 0  0 0   0   0 0.0 0 0 0 0 0% 29432 112667 36519 100%
c .  0.05 13 0 0 0  0 0   0   0 0.0 0 0 0 0 0% 29428 112667 36519 100%
c c  0.12 21 0 0 0  0 0   0   0 0.0 0 0 0 0 0% 36990 97780 32736 90%
c d  0.12 21 0 0 0  0 0   0   0 0.0 0 0 0 0 0% 29424 97780 32736 90%
c =  0.17 21 0 0 0  0 0   0   0 0.0 0 0 0 0 0% 29794 97780 32472 89%
c d  0.17 21 0 0 0  0 0   0   0 0.0 0 0 0 0 0% 29266 97780 32472 89%
c f  0.24 20 0 0 0  0 0   0   0 0.0 0 0 0 0 0% 32160 93145 34213 94%
c e  0.36 27 0 0 0  0 0   0   0 0.0 0 0 0 0 0% 10302 107127 23127 63%
c )  0.36 27 0 0 0  0 0   0   0 0.0 0 0 0 0 0% 10302 107127 23127 63%
c {  0.39 29 0 0 0  0 0   0   0 0.0 0 0 2 6 0% 10302 107127 23127 63%
c i  0.39 29 204 0 0  0 8  47  16 1.9 3 1 2 3 2% 10322 107125 23126 63%
c -  0.88 29 180 0 1 338 53 1001 740 4.5 23 5 3 9 19% 10377 107119 23126 63%
c -  1.45 29 218 0 2 524 53 2001 1494 4.1 27 7 2 8 25% 10391 107119 23126 63%
c c  1.70 23 273 0 2 568 50 2503 1919 4.0 26 6 2 8 25% 10415 107098 23122 63%
c d  1.71 23 273 0 2 568 50 2503 1919 4.0 26 6 2 8 25% 10407 107098 23122 63%
c b  1.72 23 273 0 2 568 50 2503 1919 4.0 26 6 2 8 25% 10407 107098 23120 63%
c u  1.74 23 273 0 2 568 50 2503 1580 4.0 26 6 2 8 25% 10418 107098 23120 63%
c v  1.78 23 273 0 2 568 50 2503 1215 4.0 26 6 2 8 25% 10419 107098 23120 63%
c w  1.84 26 273 0 2 568 50 2503 1214 4.0 26 6 2 8 25% 10419 107098 23120 63%
c
c  seconds   switched   rate       size/glue tier1    binary           remaining
c         MB  reductions conflicts       size  tier2      irredundant
c           level restarts    redundant    glue   trail           variables
c
c x  1.87 26 273 0 2 568 50 2503 1213 4.0 26 6 2 8 25% 10514 106901 23120 63%
c =  1.98 26 273 0 2 568 50 2503 1213 4.0 26 6 2 8 25% 10888 106901 22932 63%
c d  1.99 26 273 0 2 568 50 2503 1213 4.0 26 6 2 8 25% 10515 106900 22932 63%
c f  2.07 26 273 0 2 568 50 2503 1213 4.0 26 6 2 8 25% 11259 105489 23598 65%
c u  2.10 26 273 0 2 568 50 2503 1179 4.0 26 6 2 8 25% 11259 105489 23598 65%
c v  2.13 26 273 0 2 568 50 2503 1141 4.0 26 6 2 8 25% 11259 105489 23598 65%
c w  2.18 26 273 0 2 568 50 2503 1122 4.0 26 6 2 8 25% 11259 105489 23598 65%
c x  2.20 26 273 0 2 568 50 2503 1122 4.0 26 6 2 8 25% 11261 105258 23598 65%
c =  2.31 26 273 0 2 568 50 2503 1122 4.0 26 6 2 8 25% 11849 105258 23304 64%
c d  2.32 26 273 0 2 568 50 2503 1120 4.0 26 6 2 8 25% 11192 105258 23304 64%
c f  2.38 26 273 0 2 568 50 2503 1120 4.0 26 6 2 8 25% 12010 104031 23713 65%
c -  2.66 26 295 0 3 667 45 3415 1652 3.8 26 7 2 9 25% 12036 104028 23713 65%
c -  3.20 26 337 0 4 834 44 5148 2834 4.0 26 7 2 9 27% 12080 104024 23713 65%
c -  3.67 26 368 0 5 1013 41 7150 3907 4.2 28 7 2 9 26% 12169 104019 23713 65%
c i  3.71 26 377 0 5 1025 40 7438 4169 4.1 27 7 2 9 25% 12183 104018 23712 65%
c i  3.71 26 377 0 5 1025 40 7443 4173 4.1 27 7 2 9 25% 12183 104018 23711 65%
c i  3.71 26 379 0 5 1025 40 7484 4208 4.1 27 7 2 9 25% 12187 104018 23710 65%
c c  3.79 26 390 0 5 1025 39 7708 4380 4.1 26 6 2 9 25% 12217 103913 23689 65%
c d  3.80 26 390 0 5 1025 39 7708 4373 4.1 26 6 2 9 25% 12169 103908 23682 65%
c d  3.80 26 390 0 5 1025 39 7708 4373 4.1 26 6 2 9 25% 12170 103907 23681 65%
c
c  seconds   switched    rate       size/glue tier1    binary           remaining
c         MB  reductions  conflicts       size  tier2      irredundant
c           level  restarts    redundant    glue   trail           variables
c
c b  3.80 26 390 0 5 1025 39 7708 4373 4.1 26 6 2 9 25% 12170 103907 23679 65%
c u  3.82 26 390 0 5 1025 39 7708 3369 4.1 26 6 2 9 25% 12179 103907 23679 65%
c v  3.86 26 390 0 5 1025 39 7708 2901 4.1 26 6 2 9 25% 12180 103907 23679 65%
c w  3.88 26 390 0 5 1025 39 7708 2900 4.1 26 6 2 9 25% 12180 103907 23679 65%
c x  3.92 26 390 0 5 1025 39 7708 2899 4.1 26 6 2 9 25% 12291 99848 23679 65%
c =  4.05 26 390 0 5 1025 39 7708 2899 4.1 26 6 2 9 25% 13058 99848 23294 64%
c d  4.06 26 390 0 5 1025 39 7708 2891 4.1 26 6 2 9 25% 12217 99847 23293 64%
c t  4.08 26 390 0 5 1025 39 7708 2891 4.1 26 6 2 9 25% 12205 99847 23293 64%
c f  4.13 26 390 0 5 1025 39 7708 2891 4.1 26 6 2 9 25% 13607 97744 23994 66%
c u  4.17 26 390 0 5 1025 39 7708 2646 4.1 26 6 2 9 25% 13610 97744 23994 66%
c v  4.19 26 390 0 5 1025 39 7708 2569 4.1 26 6 2 9 25% 13610 97744 23994 66%
c w  4.21 26 390 0 5 1025 39 7708 2569 4.1 26 6 2 9 25% 13610 97744 23994 66%
c x  4.26 26 390 0 5 1025 39 7708 2569 4.1 26 6 2 9 25% 13685 94329 23994 66%
c =  4.41 26 390 0 5 1025 39 7708 2569 4.1 26 6 2 9 25% 14047 94326 23809 65%
c d  4.42 26 390 0 5 1025 39 7708 2566 4.1 26 6 2 9 25% 13639 94325 23809 65%
c t  4.43 26 390 0 5 1025 39 7708 2566 4.1 26 6 2 9 25% 13626 94325 23809 65%
c -  4.63 26 387 0 6 1067 35 9386 3487 3.8 23 6 2 8 23% 13656 94325 23809 65%
c o  4.73 26 377 0 6 1074 34 10041 4030 3.8 22 6 2 8 23% 13687 94325 23809 65%
c -  5.30 26 360 0 7 1264 33 11835 5019 4.0 24 6 2 8 24% 13727 94324 23809 65%
c s  5.56 26 368 0 7 1354 34 12510 5632 3.9 25 6 2 8 24% 13752 93528 23809 65%
c
c  seconds   switched    rate        size/glue tier1    binary          remaining
c         MB  reductions   conflicts       size  tier2      irredundant
c           level  restarts     redundant    glue   trail          variables
c
c e  5.68 26 368 0 7 1354 34 12510 5632 3.9 25 6 2 8 24% 11328 95151 22067 60%
c s  5.68 26 368 0 7 1354 34 12510 5632 3.9 25 6 2 8 24% 11338 94286 22067 60%
c e  5.69 26 368 0 7 1354 34 12510 5632 3.9 25 6 2 8 24% 11322 94301 22063 60%
c ^  5.69 26 368 0 7 1354 34 12510 5632 3.9 25 6 2 8 24% 11322 94301 22063 60%
c -  5.90 26 374 0 8 1452 34 14480 5860 3.9 24 6 2 8 23% 11397 94298 22063 60%
c d  6.21 26 363 0 8 1609 34 15785 7003 3.9 26 7 2 8 24% 11203 94296 21920 60%
c u  6.23 26 363 0 8 1609 34 15785 5558 3.9 26 7 2 8 24% 11214 94296 21920 60%
c v  6.26 26 363 0 8 1609 34 15785 4818 3.9 26 7 2 8 24% 11216 94296 21920 60%
c w  6.31 26 363 0 8 1609 34 15785 4818 3.9 26 7 2 8 24% 11216 94296 21920 60%
c x  6.33 26 363 0 8 1609 34 15785 4818 3.9 26 7 2 8 24% 11225 94146 21920 60%
c =  6.47 26 363 0 8 1609 34 15785 4818 3.9 26 7 2 8 24% 12687 94145 21187 58%
c d  6.48 26 363 0 8 1609 34 15785 4713 3.9 26 7 2 8 24% 10940 94139 21187 58%
c t  6.50 26 363 0 8 1609 34 15785 4713 3.9 26 7 2 8 24% 10923 94139 21187 58%
c f  6.55 26 363 0 8 1609 34 15785 4713 3.9 26 7 2 8 24% 10934 94114 21194 58%
c u  6.61 26 363 0 8 1609 34 15785 4355 3.9 26 7 2 8 24% 10928 94114 21194 58%
c v  6.63 26 363 0 8 1609 34 15785 4255 3.9 26 7 2 8 24% 10928 94114 21194 58%
c w  6.72 26 363 0 8 1609 34 15785 4224 3.9 26 7 2 8 24% 10928 94114 21194 58%
c =  6.84 26 363 0 8 1609 34 15785 4224 3.9 26 7 2 8 24% 12312 94114 20502 56%
c d  6.85 26 363 0 8 1609 34 15785 4191 3.9 26 7 2 8 24% 10649 94114 20502 56%
c t  6.86 26 363 0 8 1609 34 15785 4191 3.9 26 7 2 8 24% 10645 94114 20502 56%
c
c  seconds   switched    rate        size/glue tier1    binary          remaining
c         MB  reductions   conflicts       size  tier2      irredundant
c           level  restarts     redundant    glue   trail          variables
c
c f  6.88 26 363 0 8 1609 34 15785 4191 3.9 26 7 2 8 24% 10652 94090 20510 56%
c -  7.06 26 361 0 9 1699 33 17308 4855 3.8 26 7 2 7 23% 10694 94090 20510 56%
c o  7.35 26 363 0 9 1799 31 20062 7263 3.7 24 7 2 7 24% 10758 94089 20510 56%
c -  7.39 26 360 0 10 1818 31 20308 6677 3.7 25 7 2 8 24% 10761 94089 20510 56%
c -  7.90 26 365 0 11 2099 31 23471 8358 3.8 25 7 2 7 24% 10853 94089 20510 56%
c s  8.07 26 362 0 11 2178 31 25011 9692 3.8 25 7 2 7 24% 10897 92960 20510 56%
c e  8.16 26 362 0 11 2178 31 25011 9692 3.8 25 7 2 7 24% 9833 96251 18017 49%
c s  8.18 26 362 0 11 2178 31 25011 9692 3.8 25 7 2 7 24% 9874 92047 18017 49%
c e  8.21 26 362 0 11 2178 31 25011 9692 3.8 25 7 2 7 24% 9865 92065 18003 49%
c ^  8.21 26 362 0 11 2178 31 25011 9692 3.8 25 7 2 7 24% 9865 92065 18003 49%
c -  8.64 26 344 0 12 2308 30 26787 8362 3.7 24 7 2 7 24% 9888 92065 18003 49%
c d  8.69 26 343 0 12 2318 29 26912 8468 3.6 24 7 2 7 24% 9806 92065 17948 49%
c u  8.74 26 343 0 12 2318 29 26912 6964 3.6 24 7 2 7 24% 9814 92065 17948 49%
c v  8.80 26 343 0 12 2318 29 26912 5996 3.6 24 7 2 7 24% 9815 92065 17948 49%
c w  8.82 26 343 0 12 2318 29 26912 5990 3.6 24 7 2 7 24% 9815 92065 17948 49%
c x  8.90 26 343 0 12 2318 29 26912 5989 3.6 24 7 2 7 24% 9836 90246 17948 49%
c =  9.13 26 343 0 12 2318 29 26912 5989 3.6 24 7 2 7 24% 11302 90245 17215 47%
c d  9.14 26 343 0 12 2318 29 26912 5876 3.6 24 7 2 7 24% 9735 90245 17215 47%
c t  9.16 26 343 0 12 2318 29 26912 5876 3.6 24 7 2 7 24% 9716 90245 17215 47%
c f  9.25 26 343 0 12 2318 29 26912 5876 3.6 24 7 2 7 24% 9710 90168 17233 47%
c
c  seconds   switched     rate        size/glue tier1    binary         remaining
c         MB   reductions   conflicts       size  tier2     irredundant
c           level   restarts     redundant    glue   trail         variables
c
c u  9.30 26 343 0 12 2318 29 26912 5555 3.6 24 7 2 7 24% 9714 90168 17233 47%
c v  9.33 26 343 0 12 2318 29 26912 5425 3.6 24 7 2 7 24% 9714 90168 17233 47%
c w  9.35 26 343 0 12 2318 29 26912 5424 3.6 24 7 2 7 24% 9714 90168 17233 47%
c x  9.46 26 343 0 12 2318 29 26912 5424 3.6 24 7 2 7 24% 9727 85334 17233 47%
c =  9.69 26 343 0 12 2318 29 26912 5424 3.6 24 7 2 7 24% 11625 85334 16284 45%
c d  9.70 26 343 0 12 2318 29 26912 5298 3.6 24 7 2 7 24% 9675 85334 16284 45%
c t  9.72 26 343 0 12 2318 29 26912 5298 3.6 24 7 2 7 24% 9649 85334 16284 45%
c f  9.76 26 343 0 12 2318 29 26912 5298 3.6 24 7 2 7 24% 9657 85299 16293 45%
c - 10.13 26 321 0 13 2439 27 30251 7303 3.5 23 6 2 7 24% 9696 85296 16293 45%
c - 10.76 26 309 0 14 2718 26 33857 9364 3.4 22 6 2 7 24% 9752 85295 16293 45%
c - 11.57 26 295 0 15 3015 26 37600 11052 3.3 22 6 2 7 24% 9806 85295 16293 45%
c o 11.84 26 291 0 15 3090 25 40302 13365 3.3 21 6 2 7 24% 9838 85294 16293 45%
c d 12.26 26 288 0 15 3277 25 41239 14093 3.3 21 6 2 7 24% 9735 85292 16229 44%
c u 12.33 26 288 0 15 3277 25 41239 11732 3.3 21 6 2 7 24% 9763 85292 16229 44%
c v 12.40 26 288 0 15 3277 25 41239 10978 3.3 21 6 2 7 24% 9763 85292 16229 44%
c w 12.45 26 288 0 15 3277 25 41239 10978 3.3 21 6 2 7 24% 9763 85292 16229 44%
c x 12.52 26 288 0 15 3277 25 41239 10978 3.3 21 6 2 7 24% 9765 80159 16229 44%
c = 12.77 26 288 0 15 3277 25 41239 10978 3.3 21 6 2 7 24% 9829 80159 16197 44%
c d 12.78 26 288 0 15 3277 25 41239 10832 3.3 21 6 2 7 24% 9739 80159 16191 44%
c t 12.80 26 288 0 15 3277 25 41239 10832 3.3 21 6 2 7 24% 9730 80159 16191 44%
c
c  seconds   switched     rate         size/glue tier1    binary         remaining
c         MB   reductions   conflicts        size  tier2     irredundant
c           level   restarts      redundant    glue   trail         variables
c
c f 12.82 26 288 0 15 3277 25 41239 10832 3.3 21 6 2 7 24% 9730 80156 16192 44%
c c 12.89 26 288 0 15 3277 25 41239 10773 3.3 21 6 2 7 24% 9779 79962 16167 44%
c d 12.90 26 288 0 15 3277 25 41239 10773 3.3 21 6 2 7 24% 9729 79962 16167 44%
c u 12.95 26 288 0 15 3277 25 41239 10376 3.3 21 6 2 7 24% 9736 79962 16167 44%
c v 13.02 26 288 0 15 3277 25 41239 9547 3.3 21 6 2 7 24% 9744 79962 16167 44%
c w 13.09 26 288 0 15 3277 25 41239 9547 3.3 21 6 2 7 24% 9744 79962 16167 44%
c x 13.16 26 288 0 15 3277 25 41239 9547 3.3 21 6 2 7 24% 9755 78919 16167 44%
c = 13.40 26 288 0 15 3277 25 41239 9547 3.3 21 6 2 7 24% 11127 78919 15481 42%
c d 13.41 26 288 0 15 3277 25 41239 9232 3.3 21 6 2 7 24% 9654 78919 15481 42%
c t 13.43 26 288 0 15 3277 25 41239 9232 3.3 21 6 2 7 24% 9630 78919 15481 42%
c f 13.46 26 288 0 15 3277 25 41239 9232 3.3 21 6 2 7 24% 9633 78907 15484 42%
c - 13.50 26 289 0 16 3287 25 41472 8269 3.3 21 6 2 7 24% 9634 78907 15484 42%
c - 13.96 26 279 0 17 3471 24 45472 10409 3.2 21 6 2 7 23% 9720 78903 15484 42%
c - 14.60 26 271 0 18 3691 23 49595 12652 3.2 20 6 2 6 23% 9759 78902 15484 42%
c s 14.78 26 268 0 18 3773 23 52111 14731 3.1 20 6 2 6 23% 9807 73722 15484 42%
c e 14.89 26 268 0 18 3773 23 52111 14731 3.1 20 6 2 6 23% 8364 76446 14246 39%
c 2 14.89 26 268 0 18 3773 23 52111 14731 3.1 20 6 2 6 23% 8362 76446 14246 39%
c s 14.91 26 268 0 18 3773 23 52111 14731 3.1 20 6 2 6 23% 8387 75507 14246 39%
c e 14.92 26 268 0 18 3773 23 52111 14731 3.1 20 6 2 6 23% 8378 75516 14224 39%
c ^ 14.93 26 268 0 18 3773 23 52111 14731 3.1 20 6 2 6 23% 8378 75516 14224 39%
c
c  seconds   switched     rate         size/glue tier1    binary         remaining
c         MB   reductions   conflicts        size  tier2     irredundant
c           level   restarts      redundant    glue   trail         variables
c
c - 15.19 26 262 0 19 3917 22 53837 12430 3.1 20 6 2 6 23% 8387 75513 14224 39%
c - 16.04 26 250 0 20 4364 22 58195 14541 3.0 19 6 2 6 23% 8414 75510 14224 39%
c d 16.19 26 248 0 20 4427 22 58873 15136 3.0 19 6 2 6 23% 8401 75508 14214 39%
c u 16.28 26 248 0 20 4427 22 58873 12273 3.0 19 6 2 6 23% 8426 75508 14214 39%
c v 16.35 26 248 0 20 4427 22 58873 11462 3.0 19 6 2 6 23% 8429 75508 14214 39%
c w 16.38 26 248 0 20 4427 22 58873 11446 3.0 19 6 2 6 23% 8429 75508 14214 39%
c x 16.44 26 248 0 20 4427 22 58873 11445 3.0 19 6 2 6 23% 8435 75338 14214 39%
c d 16.71 26 248 0 20 4427 22 58873 11442 3.0 19 6 2 6 23% 8425 75338 14209 39%
c t 16.73 26 248 0 20 4427 22 58873 11442 3.0 19 6 2 6 23% 8391 75338 14209 39%
c f 16.79 26 248 0 20 4427 22 58873 11442 3.0 19 6 2 6 23% 8413 75238 14223 39%
c c 16.86 26 248 0 20 4427 22 58873 11421 3.0 19 6 2 6 23% 8445 75093 14204 39%
c d 16.86 26 248 0 20 4427 22 58873 11421 3.0 19 6 2 6 23% 8407 75093 14204 39%
c u 16.93 26 248 0 20 4427 22 58873 11039 3.0 19 6 2 6 23% 8408 75093 14204 39%
c v 16.98 26 248 0 20 4427 22 58873 10370 3.0 19 6 2 6 23% 8410 75093 14204 39%
c w 17.02 26 248 0 20 4427 22 58873 10337 3.0 19 6 2 6 23% 8410 75093 14204 39%
c x 17.10 26 248 0 20 4427 22 58873 10323 3.0 19 6 2 6 23% 8423 74177 14204 39%
c d 17.11 26 248 0 20 4427 22 58873 10319 3.0 19 6 2 6 23% 8419 74177 14202 39%
c t 17.13 26 248 0 20 4427 22 58873 10319 3.0 19 6 2 6 23% 8413 74177 14202 39%
c - 17.84 26 237 0 21 4759 22 62667 12270 3.0 19 6 2 6 23% 8456 74174 14202 39%
c - 18.54 26 227 0 22 5050 21 67249 14666 2.9 19 6 2 6 23% 8517 74170 14202 39%
c
c  seconds   switched     rate         size/glue tier1    binary         remaining
c         MB   reductions   conflicts        size  tier2     irredundant
c           level   restarts      redundant    glue   trail         variables
c
c i 18.98 26 224 0 22 5272 21 69517 16685 2.9 19 6 2 6 23% 8541 74170 14201 39%
c o 19.05 26 223 0 22 5305 21 70312 17337 2.9 19 6 2 6 23% 8549 74170 14201 39%
c - 19.32 26 222 0 23 5427 21 71940 16566 2.9 19 6 2 6 23% 8584 74168 14201 39%
c - 20.21 26 219 0 24 5841 21 76735 18330 2.9 19 6 2 6 23% 8659 74167 14201 39%
c c 20.68 26 219 0 24 6034 21 79950 20997 2.9 19 6 2 6 22% 8787 73596 14056 38%
c d 20.69 26 219 0 24 6034 21 79950 20483 2.9 19 6 2 6 22% 8499 73594 14056 38%
c d 20.69 26 219 0 24 6034 21 79950 20483 2.9 19 6 2 6 22% 8497 73594 14055 38%
c u 20.79 26 219 0 24 6034 21 79950 17187 2.9 19 6 2 6 22% 8530 73594 14055 38%
c v 20.87 26 219 0 24 6034 21 79950 16171 2.9 19 6 2 6 22% 8531 73594 14055 38%
c w 20.92 26 219 0 24 6034 21 79950 16167 2.9 19 6 2 6 22% 8531 73594 14055 38%
c x 21.03 26 219 0 24 6034 21 79950 16156 2.9 19 6 2 6 22% 8550 72035 14055 38%
c = 21.36 26 219 0 24 6034 21 79950 16156 2.9 19 6 2 6 22% 8564 72035 14048 38%
c d 21.37 26 219 0 24 6034 21 79950 16118 2.9 19 6 2 6 22% 8521 72035 14036 38%
c t 21.39 26 219 0 24 6034 21 79950 16118 2.9 19 6 2 6 22% 8505 72035 14036 38%
c c 21.46 26 219 0 24 6034 21 79950 16094 2.9 19 6 2 6 22% 8516 71987 14030 38%
c d 21.47 26 219 0 24 6034 21 79950 16077 2.9 19 6 2 6 22% 8504 71987 14030 38%
c u 21.56 26 219 0 24 6034 21 79950 15209 2.9 19 6 2 6 22% 8524 71987 14030 38%
c v 21.63 26 219 0 24 6034 21 79950 14332 2.9 19 6 2 6 22% 8530 71987 14030 38%
c w 21.71 26 219 0 24 6034 21 79950 14307 2.9 19 6 2 6 22% 8530 71987 14030 38%
c x 21.79 26 219 0 24 6034 21 79950 14305 2.9 19 6 2 6 22% 8545 71376 14030 38%
c
c  seconds   switched     rate         size/glue tier1    binary         remaining
c         MB   reductions   conflicts        size  tier2     irredundant
c           level   restarts      redundant    glue   trail         variables
c
c = 21.95 26 219 0 24 6034 21 79950 14305 2.9 19 6 2 6 22% 8605 71376 14000 38%
c d 21.96 26 219 0 24 6034 21 79950 14273 2.9 19 6 2 6 22% 8514 71376 13990 38%
c t 21.98 26 219 0 24 6034 21 79950 14273 2.9 19 6 2 6 22% 8508 71376 13990 38%
c - 22.16 26 216 0 25 6119 21 81636 14047 2.9 18 6 2 6 22% 8532 71374 13990 38%
c - 23.04 26 211 0 26 6538 21 86636 16580 2.8 18 6 2 6 22% 8590 71371 13990 38%
c - 24.06 26 209 0 27 7077 21 91735 17244 2.8 18 6 1 5 22% 8630 71369 13990 38%
c s 24.98 26 203 0 27 7526 21 95806 20899 2.9 18 6 1 5 23% 8681 71211 13990 38%
c e 25.12 26 203 0 27 7526 21 95806 20899 2.9 18 6 1 5 23% 5577 79342 12233 33%
c 2 25.12 26 203 0 27 7526 21 95806 20899 2.9 18 6 1 5 23% 5574 79342 12233 33%
c s 25.15 26 203 0 27 7526 21 95806 20899 2.9 18 6 1 5 23% 5599 78573 12233 33%
c e 25.17 26 203 0 27 7526 21 95806 20899 2.9 18 6 1 5 23% 5552 78790 12170 33%
c ^ 25.17 26 203 0 27 7526 21 95806 20899 2.9 18 6 1 5 23% 5552 78790 12170 33%
c - 25.39 26 201 0 28 7599 21 96931 13473 2.8 18 6 1 5 23% 5555 78790 12170 33%
c - 26.63 26 197 0 29 8308 21 102223 15618 2.8 18 7 1 5 23% 5577 78788 12170 33%
c d 27.06 26 195 0 29 8548 21 104593 17677 2.8 18 7 1 5 23% 5564 78788 12154 33%
c u 27.12 26 195 0 29 8548 21 104593 16036 2.8 18 7 1 5 23% 5595 78788 12154 33%
c v 27.23 26 195 0 29 8548 21 104593 13333 2.8 18 7 1 5 23% 5601 78788 12154 33%
c w 27.38 26 195 0 29 8548 21 104593 13109 2.8 18 7 1 5 23% 5601 78788 12154 33%
c x 27.47 26 195 0 29 8548 21 104593 13107 2.8 18 7 1 5 23% 5602 78709 12154 33%
c = 27.95 26 195 0 29 8548 21 104593 13107 2.8 18 7 1 5 23% 6294 78649 11803 32%
c
c  seconds   switched     rate          size/glue tier1    binary         remaining
c         MB   reductions   conflicts         size  tier2     irredundant
c           level   restarts       redundant    glue   trail         variables
c
c d 27.95 26 195 0 29 8548 21 104593 12676 2.8 18 7 1 5 23% 5507 78649 11803 32%
c t 27.97 26 195 0 29 8548 21 104593 12676 2.8 18 7 1 5 23% 5460 78649 11803 32%
c f 28.06 26 195 0 29 8548 21 104593 12676 2.8 18 7 1 5 23% 5494 78450 11821 32%
c u 28.15 26 195 0 29 8548 21 104593 12080 2.8 18 7 1 5 23% 5500 78450 11821 32%
c v 28.20 26 195 0 29 8548 21 104593 11585 2.8 18 7 1 5 23% 5500 78450 11821 32%
c w 28.32 26 195 0 29 8548 21 104593 11423 2.8 18 7 1 5 23% 5500 78450 11821 32%
c = 28.79 26 195 0 29 8548 21 104593 11423 2.8 18 7 1 5 23% 5834 78440 11653 32%
c d 28.80 26 195 0 29 8548 21 104593 11327 2.8 18 7 1 5 23% 5483 78439 11653 32%
c t 28.82 26 195 0 29 8548 21 104593 11327 2.8 18 7 1 5 23% 5477 78439 11653 32%
c f 28.83 26 195 0 29 8548 21 104593 11327 2.8 18 7 1 5 23% 5479 78428 11654 32%
c - 29.30 26 192 0 30 8796 21 107608 11890 2.7 18 7 1 5 23% 5490 78423 11654 32%
c o 30.00 26 188 0 30 9211 21 110315 14464 2.7 18 7 1 5 23% 5496 78418 11654 32%
c - 30.69 26 186 0 31 9601 21 113088 14498 2.7 18 7 1 5 24% 5504 78418 11654 32%
c - 32.20 26 181 0 32 10375 22 118655 16773 2.7 19 7 1 5 24% 5517 78417 11654 32%
c - 33.34 26 178 0 33 10885 22 124311 18278 2.7 19 7 1 5 24% 5543 78417 11654 32%
c - 35.13 26 176 0 34 11695 22 130055 19719 2.8 20 7 1 5 25% 5561 78417 11654 32%
c d 35.90 26 174 0 34 12043 22 132850 22172 2.8 20 7 1 5 25% 5540 78417 11638 32%
c u 35.99 26 174 0 34 12043 22 132850 19858 2.8 20 7 1 5 25% 5563 78417 11638 32%
c v 36.12 26 174 0 34 12043 22 132850 16354 2.8 20 7 1 5 25% 5569 78417 11638 32%
c w 36.38 26 174 0 34 12043 22 132850 16303 2.8 20 7 1 5 25% 5569 78417 11638 32%
c
c  seconds   switched      rate          size/glue tier1    binary         remaining
c         MB   reductions    conflicts         size  tier2     irredundant
c           level   restarts        redundant    glue   trail         variables
c
c x 36.51 26 174 0 34 12043 22 132850 16303 2.8 20 7 1 5 25% 5569 78384 11638 32%
c = 37.03 26 174 0 34 12043 22 132850 16303 2.8 20 7 1 5 25% 5697 78340 11569 32%
c d 37.04 26 174 0 34 12043 22 132850 16149 2.8 20 7 1 5 25% 5545 78340 11569 32%
c t 37.05 26 174 0 34 12043 22 132850 16149 2.8 20 7 1 5 25% 5529 78340 11569 32%
c u 37.10 26 174 0 34 12043 22 132850 15550 2.8 20 7 1 5 25% 5529 78340 11569 32%
c v 37.15 26 174 0 34 12043 22 132850 14906 2.8 20 7 1 5 25% 5529 78340 11569 32%
c w 37.35 26 174 0 34 12043 22 132850 14462 2.8 20 7 1 5 25% 5529 78340 11569 32%
c - 38.17 26 172 0 35 12245 22 135886 14613 2.8 20 7 1 5 25% 5552 78340 11569 32%
c - 38.93 26 168 0 36 12737 21 141802 17163 2.8 20 7 1 5 25% 5575 78339 11569 32%
c - 39.81 28 165 0 37 13365 21 147802 19440 2.8 20 7 1 5 25% 5599 78339 11569 32%
c - 40.73 28 161 0 38 13997 21 153884 21117 2.8 20 7 1 5 25% 5616 78339 11569 32%
c i 41.16 28 160 0 38 14290 21 156548 23507 2.8 20 7 1 5 25% 5635 78337 11568 32%
c i 41.16 28 160 0 38 14293 21 156638 23541 2.8 20 7 1 5 25% 5645 78337 11567 32%
c s 41.31 28 159 0 38 14385 21 157891 24665 2.8 20 7 1 5 25% 5651 76112 11567 32%
c e 41.43 28 159 0 38 14385 21 157891 24665 2.8 20 7 1 5 25% 3121 87877 9976 27%
c 2 41.43 28 159 0 38 14385 21 157891 24665 2.8 20 7 1 5 25% 3115 87877 9976 27%
c s 41.46 28 159 0 38 14385 21 157891 24665 2.8 20 7 1 5 25% 3124 86589 9976 27%
c e 41.48 28 159 0 38 14385 21 157891 24665 2.8 20 7 1 5 25% 3070 86825 9927 27%
c ^ 41.48 28 159 0 38 14385 21 157891 24665 2.8 20 7 1 5 25% 3070 86825 9927 27%
c - 41.79 28 157 0 39 14617 21 160048 16122 2.7 20 7 1 5 25% 3075 86823 9927 27%
c
c  seconds   switched      rate          size/glue tier1    binary        remaining
c         MB   reductions    conflicts         size  tier2     irredundant
c           level   restarts        redundant    glue   trail        variables
c
c o 41.84 28 157 0 39 14655 21 160316 16360 2.7 20 7 1 5 25% 3075 86823 9927 27%
c i 42.11 28 156 0 39 14863 21 162294 18200 2.7 20 7 1 5 25% 3082 86823 9926 27%
c i 42.27 28 155 0 39 14985 21 163953 19661 2.7 20 7 1 5 25% 3089 86823 9925 27%
c i 42.31 28 155 0 39 15016 21 164337 19941 2.7 20 7 1 5 25% 3100 86823 9911 27%
c c 42.37 28 154 0 39 15024 21 164834 20401 2.7 20 7 1 5 25% 3084 86618 9900 27%
c d 42.37 28 154 0 39 15024 21 164834 19938 2.7 20 7 1 5 25% 3098 86588 9900 27%
c d 42.37 28 154 0 39 15024 21 164834 19916 2.7 20 7 1 5 25% 3066 86582 9884 27%
c u 42.42 28 154 0 39 15024 21 164834 17960 2.7 20 7 1 5 25% 3076 86582 9881 27%
c v 42.49 28 154 0 39 15024 21 164834 14753 2.7 20 7 1 5 25% 3081 86582 9881 27%
c w 42.68 28 154 0 39 15024 21 164834 14204 2.7 20 7 1 5 25% 3081 86582 9881 27%
c d 42.68 28 154 0 39 15024 21 164834 14181 2.7 20 7 1 5 25% 3081 86560 9879 27%
c d 42.68 28 154 0 39 15024 21 164834 14178 2.7 20 7 1 5 25% 3077 86560 9877 27%
c t 42.69 28 154 0 39 15024 21 164834 14178 2.7 20 7 1 5 25% 3058 86560 9877 27%
c f 42.79 28 154 0 39 15024 21 164834 14178 2.7 20 7 1 5 25% 3105 86043 9901 27%
c u 42.83 28 154 0 39 15024 21 164834 13875 2.7 20 7 1 5 25% 3106 86043 9901 27%
c v 42.87 28 154 0 39 15024 21 164834 13354 2.7 20 7 1 5 25% 3109 86043 9901 27%
c w 43.02 28 154 0 39 15024 21 164834 13143 2.7 20 7 1 5 25% 3109 86043 9901 27%
c x 43.13 28 154 0 39 15024 21 164834 13123 2.7 20 7 1 5 25% 3131 83539 9901 27%
c = 43.64 28 154 0 39 15024 21 164834 13123 2.7 20 7 1 5 25% 3199 83470 9860 27%
c d 43.65 28 154 0 39 15024 21 164834 13012 2.7 20 7 1 5 25% 3123 83470 9860 27%
c
c  seconds   switched      rate          size/glue tier1    binary        remaining
c         MB   reductions    conflicts         size  tier2     irredundant
c           level   restarts        redundant    glue   trail        variables
c
c t 43.65 28 154 0 39 15024 21 164834 13012 2.7 20 7 1 5 25% 3104 83470 9860 27%
c i 43.67 28 154 0 39 15024 21 164834 13012 2.7 20 7 1 5 25% 3104 83470 9860 27%
c - 43.76 28 153 0 40 15130 20 166293 11982 2.7 20 7 1 5 25% 3095 83469 9860 27%
c i 43.93 28 150 0 40 15310 20 169269 14662 2.7 20 7 1 5 25% 3106 83468 9859 27%
c - 44.09 28 146 0 41 15532 20 172619 14728 2.7 20 7 1 5 24% 3135 83464 9859 27%
c i 44.11 28 146 0 41 15556 19 173056 15129 2.7 20 7 1 5 24% 3138 83464 9858 27%
c i 44.12 28 146 0 41 15582 19 173245 15279 2.7 20 7 1 5 24% 3142 83461 9857 27%
c i 44.16 28 145 0 41 15631 19 173896 15874 2.7 20 7 1 5 24% 3142 83461 9856 27%
c i 44.17 28 145 0 41 15641 19 174106 16041 2.7 20 7 1 5 24% 3145 83461 9855 27%
c i 44.20 28 145 0 41 15684 19 174682 16544 2.7 20 7 1 5 24% 3150 83461 9854 27%
c i 44.23 28 144 0 41 15757 19 175399 17176 2.7 20 7 1 5 24% 3161 83461 9852 27%
c i 44.27 28 143 0 41 15830 19 176622 18248 2.6 20 7 1 5 24% 3170 83460 9851 27%
c i 44.27 28 142 0 41 15840 19 176881 18445 2.6 20 7 1 5 24% 3178 83460 9850 27%
c - 44.32 28 139 0 42 15873 19 179023 16313 2.6 20 7 1 5 23% 3176 83460 9850 27%
c i 44.33 28 137 0 42 15874 18 180462 17505 2.6 19 7 1 5 23% 3195 83460 9825 27%
c i 44.34 28 137 0 42 15877 18 180734 17692 2.6 19 7 1 5 23% 3203 83460 9824 27%
c i 44.34 28 137 0 42 15877 18 180776 17717 2.6 19 7 1 5 23% 3209 83460 9725 27%
c i 44.34 28 137 0 42 15877 18 180778 17717 2.6 19 7 1 5 23% 3210 83460 9716 27%
c } 44.34 28 137 0 42 15877 18 180780 17717 2.6 19 7 1 5 23% 3210 83460 9712 27%
c 0 44.34 28 137 0 42 15877 18 180780 17717 2.6 19 7 1 5 23% 3210 83460 9712 27%
c
c ---- [ result ] ------------------------------------------------------------
c
s UNSATISFIABLE
c
c ---- [ profiling ] ---------------------------------------------------------
c
c          31.07   70.08 %  search
c          31.07   70.08 %  focused
c          12.88   29.04 %  simplify
c          12.19   27.50 %  probe
c           5.00   11.27 %  sweep
c           4.82   10.88 %  vivify
c           0.89    2.02 %  factor
c           0.88    1.99 %  eliminate
c           0.64    1.45 %  substitute
c           0.59    1.33 %  congruence
c           0.32    0.72 %  preprocess
c           0.25    0.57 %  reduce
c           0.16    0.37 %  subsume
c           0.16    0.35 %  transitive
c           0.12    0.26 %  fastel
c           0.08    0.19 %  backbone
c           0.05    0.11 %  lucky
c           0.02    0.05 %  parse
c =============================================
c          44.34  100.00 %  total
c
c ---- [ statistics ] --------------------------------------------------------
c
c chronological:                         5424                3 %  conflicts
c conflicts:                           180780             4077.00 per second
c congruent:                             4014               11 %  variables
c decisions:                          3451669               19.09 per conflict
c eliminated:                           20059               55 %  variables
c factored:                              3620               10 %  variables
c fast_eliminated:                      11086               55 %  eliminated
c fast_strengthened:                       10                0 %  per strengthened
c fast_subsumed:                           79                0 %  per subsumed
c iterations:                              24                0 %  variables
c propagations:                     141897623          3200114    per second
c reductions:                              42             4304    interval
c reordered:                                6            30130    interval
c restarts:                             15877               11    interval
c strengthened:                          5511                0 %  checks
c substituted:                          10162               28 %  variables
c subsumed:                             17493                0 %  checks
c switched:                                 0                0    interval
c vivified:                             82439               14 %  checks
c
c ---- [ glue usage ] --------------------------------------------------------
c
c focused glue 1 used 278382 clauses 57.94% accumulated 57.94% tier1
c focused glue 2 used 100435 clauses 20.90% accumulated 78.84%
c focused glue 3 used  31332 clauses  6.52% accumulated 85.36%
c focused glue 4 used  18428 clauses  3.84% accumulated 89.20%
c focused glue 5 used  11588 clauses  2.41% accumulated 91.61% tier2
c
c ---- [ resources ] ---------------------------------------------------------
c
c maximum-resident-set-size:         31019008 bytes         30 MB
c process-time:                            44s              44.34 seconds
c
c ---- [ shutting down ] -----------------------------------------------------
c
c exit 20
